DIMACS_lns/graph-1000-219.col
p edge 1000 1849
e 1 760
e 1 408
e 1 539
e 1 533
e 2 518
e 2 474
e 2 160
e 2 143
e 3 524
e 3 309
e 3 528
e 3 174
e 3 127
e 3 655
e 3 411
e 3 628
e 3 494
e 4 642
e 4 583
e 4 230
e 4 457
e 5 183
e 5 75
e 5 603
e 5 977
e 5 219
e 5 77
e 6 641
e 6 543
e 6 404
e 6 632
e 8 463
e 8 223
e 8 945
e 13 981
e 13 69
e 13 942
e 14 229
e 14 23
e 14 680
e 14 798
e 15 908
e 15 117
e 15 735
e 16 626
e 16 211
e 16 1000
e 16 362
e 16 369
e 16 202
e 18 846
e 18 142
e 18 65
e 18 618
e 18 380
e 19 278
e 19 508
e 19 451
e 21 822
e 21 487
e 21 119
e 22 132
e 22 407
e 22 139
e 23 577
e 23 772
e 23 622
e 24 894
e 24 874
e 24 782
e 24 397
e 25 179
e 25 801
e 25 449
e 25 469
e 25 869
e 25 820
e 26 985
e 26 982
e 26 99
e 26 990
e 26 153
e 29 594
e 29 678
e 29 826
e 29 171
e 30 141
e 30 621
e 30 946
e 31 614
e 31 744
e 31 504
e 31 987
e 31 683
e 31 606
e 32 875
e 32 330
e 32 785
e 32 929
e 33 772
e 33 468
e 33 280
e 33 735
e 33 464
e 34 99
e 34 903
e 34 115
e 34 692
e 34 460
e 34 363
e 34 508
e 34 382
e 34 828
e 34 922
e 35 417
e 35 693
e 35 125
e 36 131
e 36 567
e 36 444
e 36 440
e 36 929
e 36 460
e 36 106
e 37 130
e 37 564
e 37 300
e 37 908
e 38 138
e 38 659
e 38 528
e 38 190
e 38 672
e 38 591
e 40 784
e 40 364
e 40 792
e 41 596
e 41 470
e 41 490
e 41 179
e 44 648
e 44 108
e 44 475
e 46 883
e 46 843
e 46 617
e 46 512
e 47 853
e 47 226
e 47 246
e 47 764
e 47 767
e 50 615
e 50 662
e 50 444
e 50 878
e 50 263
e 50 270
e 50 261
e 50 340
e 50 868
e 51 591
e 51 920
e 51 796
e 51 72
e 51 470
e 51 480
e 51 898
e 51 114
e 52 901
e 52 212
e 52 828
e 52 973
e 52 550
e 52 830
e 55 1000
e 55 769
e 55 474
e 55 710
e 55 197
e 58 330
e 58 709
e 58 189
e 59 229
e 59 963
e 59 559
e 60 301
e 60 653
e 60 293
e 60 196
e 60 86
e 62 609
e 62 308
e 62 617
e 62 323
e 62 269
e 63 763
e 63 521
e 63 484
e 64 171
e 64 816
e 64 894
e 65 563
e 65 102
e 65 533
e 65 110
e 67 898
e 67 480
e 67 634
e 67 338
e 69 130
e 69 335
e 69 508
e 70 427
e 70 829
e 70 134
e 71 422
e 71 117
e 71 746
e 71 715
e 71 351
e 71 893
e 71 418
e 71 210
e 72 326
e 72 362
e 73 162
e 73 925
e 73 137
e 73 889
e 75 196
e 75 942
e 75 733
e 75 961
e 76 718
e 76 715
e 76 894
e 77 173
e 77 607
e 78 382
e 78 937
e 78 202
e 79 83
e 79 569
e 79 906
e 79 158
e 80 113
e 80 635
e 80 520
e 82 412
e 82 206
e 82 503
e 82 566
e 82 484
e 82 238
e 82 821
e 82 957
e 82 780
e 82 463
e 83 402
e 83 520
e 83 421
e 83 503
e 83 964
e 84 770
e 84 224
e 84 879
e 84 844
e 84 281
e 84 763
e 86 633
e 86 417
e 86 468
e 86 834
e 86 481
e 86 805
e 86 197
e 87 428
e 87 467
e 87 786
e 87 621
e 87 988
e 88 746
e 88 275
e 88 325
e 88 474
e 88 112
e 89 944
e 89 376
e 89 618
e 89 797
e 89 945
e 90 492
e 90 964
e 90 118
e 90 372
e 90 271
e 90 333
e 92 930
e 92 327
e 92 224
e 93 641
e 93 624
e 93 887
e 93 959
e 94 349
e 94 101
e 94 273
e 95 219
e 95 323
e 95 527
e 95 399
e 96 241
e 96 398
e 96 607
e 96 589
e 97 620
e 97 302
e 97 485
e 97 216
e 98 731
e 98 236
e 98 512
e 99 818
e 99 474
e 100 402
e 100 643
e 100 591
e 100 963
e 100 439
e 100 291
e 100 131
e 100 594
e 101 833
e 101 923
e 101 969
e 101 944
e 101 960
e 101 356
e 102 601
e 102 566
e 103 624
e 103 199
e 103 794
e 104 699
e 104 698
e 104 574
e 104 938
e 104 822
e 105 311
e 105 697
e 105 258
e 105 133
e 106 665
e 106 335
e 106 830
e 106 714
e 107 697
e 107 401
e 107 964
e 107 183
e 107 727
e 107 896
e 108 363
e 108 594
e 108 527
e 108 682
e 109 621
e 109 626
e 109 485
e 109 394
e 109 609
e 110 922
e 110 559
e 112 145
e 112 177
e 112 678
e 112 183
e 113 786
e 113 485
e 113 956
e 113 240
e 113 641
e 113 918
e 114 893
e 114 211
e 114 804
e 114 538
e 115 743
e 115 645
e 116 527
e 116 625
e 116 124
e 117 290
e 117 582
e 118 123
e 118 261
e 118 753
e 118 836
e 118 816
e 118 749
e 118 350
e 119 753
e 119 732
e 119 844
e 121 778
e 121 919
e 121 745
e 121 375
e 121 449
e 121 744
e 121 820
e 122 143
e 122 863
e 122 152
e 122 938
e 123 680
e 123 939
e 124 508
e 124 202
e 124 192
e 124 681
e 125 128
e 125 415
e 125 185
e 125 749
e 126 806
e 126 296
e 126 452
e 127 686
e 127 441
e 128 891
e 128 226
e 128 659
e 128 301
e 130 683
e 130 355
e 130 310
e 130 278
e 130 860
e 130 193
e 131 549
e 131 187
e 131 310
e 132 991
e 132 508
e 133 241
e 133 950
e 133 411
e 134 987
e 134 284
e 135 582
e 135 193
e 135 752
e 136 721
e 136 655
e 136 571
e 136 330
e 137 145
e 137 193
e 137 871
e 138 984
e 138 189
e 138 992
e 138 854
e 138 367
e 139 362
e 139 188
e 140 834
e 140 561
e 140 719
e 140 753
e 140 349
e 141 972
e 141 816
e 142 510
e 142 380
e 142 731
e 142 174
e 143 829
e 143 714
e 143 617
e 144 252
e 144 751
e 144 528
e 144 857
e 145 178
e 145 922
e 145 743
e 145 210
e 147 531
e 147 743
e 147 788
e 148 524
e 148 668
e 148 316
e 148 235
e 149 502
e 149 242
e 149 274
e 149 916
e 149 886
e 152 660
e 152 496
e 153 622
e 153 175
e 153 444
e 153 221
e 153 478
e 153 177
e 153 410
e 158 535
e 158 484
e 159 250
e 159 731
e 159 274
e 159 845
e 159 613
e 159 883
e 159 781
e 160 232
e 160 638
e 160 351
e 162 165
e 162 661
e 162 594
e 162 257
e 164 579
e 164 691
e 164 398
e 165 312
e 165 306
e 165 433
e 165 869
e 165 531
e 165 761
e 166 620
e 166 799
e 166 885
e 166 338
e 167 693
e 167 392
e 167 521
e 167 269
e 167 581
e 167 696
e 167 672
e 167 452
e 168 959
e 168 847
e 168 859
e 168 293
e 168 569
e 169 282
e 169 523
e 169 289
e 170 980
e 170 407
e 170 188
e 170 746
e 170 478
e 170 482
e 171 538
e 171 971
e 171 666
e 171 932
e 172 487
e 172 210
e 172 491
e 172 957
e 173 586
e 173 799
e 174 260
e 174 216
e 174 885
e 174 220
e 174 195
e 175 645
e 175 678
e 175 564
e 177 334
e 177 808
e 178 960
e 178 622
e 178 618
e 179 394
e 179 450
e 180 876
e 180 673
e 180 261
e 180 404
e 180 368
e 181 366
e 181 454
e 181 348
e 181 393
e 181 782
e 181 828
e 181 370
e 183 733
e 183 563
e 185 386
e 185 278
e 185 506
e 185 424
e 185 997
e 187 506
e 187 367
e 187 702
e 188 655
e 188 628
e 189 593
e 189 275
e 189 433
e 190 481
e 190 960
e 190 845
e 191 646
e 191 395
e 191 436
e 191 205
e 191 845
e 191 873
e 192 497
e 192 705
e 192 284
e 193 453
e 193 605
e 193 742
e 194 801
e 194 696
e 194 989
e 195 532
e 195 271
e 195 383
e 195 822
e 196 793
e 196 582
e 196 907
e 196 678
e 197 679
e 197 780
e 197 415
e 197 480
e 197 213
e 199 869
e 199 638
e 200 769
e 200 655
e 200 491
e 200 426
e 200 907
e 200 500
e 201 589
e 201 644
e 201 696
e 201 595
e 202 470
e 202 722
e 202 408
e 205 582
e 205 820
e 205 477
e 205 619
e 205 695
e 206 933
e 206 245
e 209 300
e 209 535
e 209 703
e 209 309
e 210 232
e 210 401
e 210 569
e 211 595
e 211 549
e 212 286
e 212 306
e 212 415
e 212 469
e 212 914
e 213 989
e 213 216
e 213 746
e 213 451
e 213 967
e 215 847
e 215 275
e 215 598
e 215 767
e 215 371
e 216 819
e 216 655
e 216 533
e 216 654
e 216 784
e 216 610
e 216 733
e 216 426
e 217 240
e 217 690
e 217 582
e 217 956
e 217 378
e 217 591
e 218 373
e 218 327
e 218 879
e 218 651
e 218 280
e 218 649
e 219 642
e 220 561
e 220 525
e 220 944
e 220 971
e 221 958
e 221 516
e 221 850
e 221 683
e 223 408
e 223 531
e 223 710
e 224 599
e 224 269
e 224 998
e 224 811
e 224 744
e 225 373
e 225 808
e 225 956
e 226 567
e 226 515
e 226 305
e 227 685
e 227 620
e 227 231
e 229 655
e 229 500
e 229 397
e 230 828
e 230 231
e 230 261
e 231 420
e 231 407
e 232 731
e 232 983
e 232 705
e 234 259
e 234 554
e 234 384
e 234 828
e 234 428
e 234 772
e 235 929
e 235 926
e 236 642
e 236 282
e 238 251
e 238 598
e 238 783
e 238 826
e 238 435
e 238 932
e 238 619
e 238 350
e 238 691
e 238 586
e 240 616
e 241 661
e 241 788
e 242 655
e 242 613
e 242 360
e 242 985
e 244 255
e 244 459
e 244 648
e 244 404
e 245 925
e 245 596
e 245 502
e 245 686
e 246 798
e 246 926
e 246 561
e 247 624
e 247 319
e 247 819
e 247 393
e 250 334
e 250 801
e 251 357
e 251 685
e 252 695
e 252 973
e 252 741
e 253 691
e 253 521
e 253 846
e 253 370
e 254 269
e 254 853
e 254 760
e 254 478
e 255 372
e 255 851
e 255 315
e 256 565
e 256 968
e 256 452
e 256 857
e 257 325
e 257 551
e 257 966
e 258 539
e 258 436
e 258 707
e 259 510
e 259 525
e 260 631
e 260 509
e 260 493
e 260 752
e 261 512
e 261 533
e 261 514
e 263 525
e 263 739
e 266 851
e 266 310
e 266 381
e 267 902
e 267 743
e 267 394
e 267 280
e 269 621
e 269 623
e 269 770
e 269 809
e 269 705
e 270 653
e 270 451
e 270 562
e 270 630
e 271 567
e 271 874
e 271 581
e 271 751
e 273 804
e 273 950
e 273 641
e 273 749
e 273 403
e 273 653
e 274 411
e 274 797
e 274 901
e 275 356
e 275 863
e 275 291
e 275 707
e 276 386
e 276 627
e 276 378
e 278 773
e 278 564
e 278 825
e 279 935
e 279 304
e 279 481
e 280 303
e 280 327
e 281 704
e 281 462
e 281 601
e 281 313
e 282 622
e 284 741
e 286 834
e 286 299
e 286 382
e 286 746
e 288 433
e 288 496
e 288 608
e 288 350
e 289 442
e 289 704
e 289 940
e 290 897
e 290 549
e 290 510
e 291 676
e 293 913
e 293 497
e 293 929
e 296 448
e 296 809
e 298 371
e 298 405
e 298 439
e 299 382
e 299 302
e 299 940
e 299 852
e 300 721
e 300 348
e 301 523
e 302 979
e 302 579
e 302 398
e 302 806
e 303 673
e 303 349
e 304 353
e 304 667
e 305 384
e 305 586
e 305 710
e 305 680
e 305 971
e 305 983
e 306 564
e 306 982
e 307 327
e 307 446
e 307 887
e 308 702
e 308 367
e 308 843
e 309 427
e 309 621
e 309 914
e 309 324
e 309 874
e 310 402
e 310 959
e 310 803
e 310 627
e 310 743
e 310 695
e 311 871
e 311 866
e 311 449
e 312 571
e 312 865
e 312 915
e 313 863
e 313 422
e 313 818
e 315 560
e 315 516
e 315 603
e 316 796
e 316 743
e 316 575
e 316 778
e 316 468
e 319 964
e 319 367
e 319 561
e 319 649
e 319 919
e 320 654
e 320 752
e 320 402
e 320 571
e 320 785
e 322 347
e 322 338
e 322 436
e 322 666
e 322 565
e 323 866
e 323 737
e 323 527
e 323 539
e 323 718
e 323 553
e 324 703
e 324 998
e 325 494
e 326 547
e 326 783
e 326 808
e 327 782
e 327 690
e 327 937
e 330 416
e 330 551
e 330 401
e 330 641
e 330 392
e 330 373
e 332 830
e 332 532
e 332 487
e 333 470
e 333 752
e 334 393
e 334 610
e 334 692
e 335 552
e 335 562
e 335 963
e 335 459
e 335 520
e 336 554
e 336 475
e 336 925
e 338 928
e 338 778
e 338 678
e 338 907
e 340 649
e 340 805
e 340 804
e 340 656
e 340 497
e 340 992
e 342 459
e 342 794
e 342 635
e 347 948
e 347 560
e 347 896
e 348 418
e 348 599
e 348 728
e 349 596
e 350 445
e 350 878
e 351 915
e 351 392
e 351 506
e 351 531
e 353 733
e 353 648
e 354 372
e 354 397
e 354 436
e 354 503
e 355 602
e 355 500
e 356 512
e 356 654
e 356 590
e 357 372
e 357 482
e 360 978
e 360 937
e 360 542
e 360 652
e 362 815
e 362 398
e 362 485
e 362 649
e 363 614
e 363 542
e 363 429
e 363 728
e 363 967
e 363 391
e 363 667
e 364 552
e 364 509
e 364 708
e 365 445
e 365 938
e 365 670
e 365 695
e 366 479
e 366 472
e 366 591
e 366 552
e 366 753
e 367 670
e 367 568
e 367 442
e 367 559
e 368 806
e 368 423
e 368 398
e 368 633
e 369 944
e 369 686
e 370 845
e 370 413
e 371 440
e 371 917
e 372 531
e 372 624
e 372 615
e 372 777
e 373 963
e 373 398
e 373 815
e 375 769
e 375 838
e 376 949
e 376 966
e 377 820
e 377 385
e 377 518
e 377 449
e 377 815
e 378 520
e 378 553
e 378 615
e 380 960
e 381 536
e 381 512
e 381 946
e 381 859
e 382 525
e 382 647
e 382 937
e 383 539
e 383 494
e 383 702
e 383 682
e 383 456
e 384 977
e 384 509
e 385 739
e 385 610
e 385 680
e 385 427
e 385 682
e 386 749
e 386 908
e 386 439
e 391 699
e 391 935
e 393 727
e 393 799
e 393 528
e 393 398
e 393 747
e 394 868
e 394 495
e 394 844
e 394 451
e 394 908
e 395 411
e 395 828
e 395 809
e 398 891
e 398 708
e 398 470
e 399 474
e 399 908
e 399 737
e 401 429
e 401 493
e 402 494
e 402 811
e 402 659
e 403 767
e 403 664
e 403 713
e 404 751
e 404 908
e 405 973
e 405 830
e 405 532
e 405 462
e 405 444
e 408 440
e 408 844
e 410 788
e 410 641
e 410 661
e 411 969
e 411 535
e 411 820
e 411 484
e 412 453
e 412 996
e 412 977
e 413 610
e 413 907
e 413 916
e 414 899
e 414 919
e 414 773
e 415 536
e 415 683
e 416 909
e 416 839
e 416 689
e 416 944
e 417 824
e 418 824
e 418 858
e 418 987
e 419 871
e 419 482
e 419 441
e 419 596
e 420 501
e 420 990
e 420 851
e 421 488
e 421 733
e 421 797
e 421 982
e 422 788
e 422 922
e 422 958
e 422 951
e 422 536
e 423 796
e 423 679
e 423 949
e 423 988
e 424 665
e 424 716
e 424 667
e 424 429
e 424 521
e 424 451
e 426 811
e 426 716
e 426 509
e 427 858
e 427 735
e 428 676
e 428 785
e 433 716
e 433 850
e 433 788
e 434 562
e 434 457
e 434 950
e 435 888
e 435 721
e 436 448
e 436 908
e 436 853
e 440 996
e 440 763
e 441 802
e 441 603
e 441 899
e 442 747
e 442 852
e 442 978
e 442 835
e 444 704
e 445 547
e 445 896
e 446 776
e 446 605
e 446 957
e 448 591
e 448 504
e 448 843
e 448 515
e 449 793
e 449 569
e 449 492
e 450 942
e 450 539
e 451 606
e 452 535
e 453 733
e 453 992
e 454 865
e 454 847
e 454 714
e 454 856
e 456 914
e 456 997
e 457 893
e 457 553
e 459 664
e 460 656
e 460 777
e 460 928
e 462 614
e 462 807
e 462 627
e 463 923
e 464 509
e 464 979
e 464 630
e 464 793
e 464 711
e 465 690
e 465 560
e 465 521
e 467 490
e 467 913
e 467 756
e 468 606
e 469 515
e 469 547
e 470 652
e 470 858
e 472 745
e 472 755
e 472 665
e 473 889
e 473 925
e 473 565
e 474 633
e 474 649
e 474 493
e 474 990
e 475 491
e 475 834
e 475 939
e 475 784
e 477 946
e 477 732
e 478 690
e 478 571
e 479 792
e 479 836
e 480 894
e 481 643
e 481 515
e 481 828
e 481 816
e 481 482
e 481 914
e 482 900
e 482 885
e 482 859
e 484 716
e 484 722
e 484 609
e 484 909
e 484 708
e 485 900
e 485 920
e 487 719
e 487 508
e 488 683
e 488 586
e 488 894
e 488 726
e 488 904
e 488 613
e 490 721
e 490 892
e 490 695
e 491 594
e 491 581
e 491 979
e 491 689
e 492 892
e 492 662
e 492 655
e 494 645
e 494 983
e 494 727
e 494 631
e 494 922
e 494 713
e 495 776
e 495 616
e 495 550
e 496 581
e 496 678
e 496 628
e 497 983
e 497 997
e 497 778
e 498 935
e 498 608
e 498 764
e 498 763
e 499 705
e 499 925
e 499 716
e 500 998
e 500 830
e 500 747
e 501 518
e 501 599
e 502 978
e 502 933
e 502 838
e 503 856
e 503 968
e 503 689
e 504 756
e 504 794
e 504 809
e 505 616
e 505 987
e 505 590
e 505 608
e 505 777
e 505 543
e 506 601
e 506 651
e 506 693
e 508 844
e 508 620
e 509 969
e 509 980
e 509 566
e 510 922
e 512 855
e 512 776
e 512 705
e 512 969
e 513 833
e 513 583
e 513 703
e 514 833
e 514 950
e 514 736
e 515 745
e 516 543
e 516 977
e 516 883
e 516 885
e 518 869
e 520 964
e 520 996
e 520 579
e 520 566
e 521 985
e 523 826
e 523 972
e 524 904
e 525 852
e 525 760
e 525 944
e 527 552
e 528 654
e 528 711
e 531 982
e 531 857
e 532 614
e 533 780
e 533 554
e 533 611
e 535 801
e 535 814
e 535 980
e 535 736
e 535 806
e 538 955
e 539 937
e 542 585
e 542 633
e 542 716
e 542 987
e 542 942
e 543 753
e 543 754
e 543 602
e 549 559
e 549 855
e 549 727
e 550 990
e 550 953
e 551 598
e 552 749
e 553 883
e 553 649
e 554 803
e 555 908
e 555 614
e 555 733
e 559 845
e 561 781
e 561 835
e 562 991
e 563 957
e 563 922
e 564 577
e 564 749
e 564 956
e 564 711
e 565 620
e 565 777
e 565 656
e 565 764
e 565 667
e 566 774
e 566 753
e 567 726
e 567 824
e 567 811
e 568 969
e 568 953
e 568 808
e 568 613
e 568 710
e 571 647
e 571 906
e 574 750
e 574 746
e 575 913
e 575 802
e 575 907
e 577 959
e 577 860
e 577 967
e 577 857
e 579 767
e 581 635
e 581 582
e 581 846
e 581 952
e 582 865
e 582 754
e 582 736
e 583 815
e 585 590
e 585 973
e 585 836
e 586 889
e 589 891
e 589 652
e 590 939
e 590 628
e 590 945
e 590 829
e 593 632
e 593 707
e 594 966
e 594 937
e 594 918
e 595 886
e 595 661
e 595 602
e 595 616
e 595 672
e 596 987
e 598 955
e 598 814
e 599 653
e 601 929
e 601 643
e 601 885
e 602 985
e 602 892
e 603 785
e 603 952
e 605 919
e 605 987
e 606 781
e 606 686
e 606 667
e 607 692
e 608 911
e 608 869
e 609 896
e 609 761
e 609 676
e 609 610
e 610 968
e 611 665
e 611 642
e 611 917
e 613 686
e 614 860
e 614 937
e 615 641
e 615 708
e 616 871
e 616 966
e 616 661
e 617 859
e 617 792
e 617 623
e 618 743
e 618 825
e 619 728
e 619 680
e 620 816
e 622 980
e 623 736
e 623 698
e 624 670
e 625 832
e 625 921
e 625 741
e 626 803
e 626 655
e 626 699
e 626 901
e 627 911
e 628 820
e 630 728
e 631 839
e 631 988
e 631 868
e 632 816
e 632 875
e 633 899
e 633 707
e 633 767
e 634 950
e 634 672
e 638 938
e 638 966
e 642 991
e 642 844
e 644 945
e 644 774
e 644 956
e 644 835
e 644 695
e 645 979
e 645 782
e 646 835
e 646 847
e 647 755
e 647 760
e 648 950
e 648 690
e 649 920
e 650 950
e 650 745
e 650 693
e 651 785
e 652 983
e 653 761
e 654 894
e 654 906
e 655 797
e 655 832
e 656 706
e 659 940
e 659 948
e 660 836
e 660 702
e 660 1000
e 661 753
e 662 718
e 664 749
e 664 898
e 665 722
e 665 809
e 666 821
e 667 981
e 668 1000
e 668 755
e 668 991
e 670 911
e 670 876
e 670 928
e 672 876
e 672 984
e 673 918
e 673 784
e 676 908
e 676 902
e 678 751
e 679 797
e 680 816
e 681 805
e 681 913
e 682 955
e 682 706
e 682 760
e 683 785
e 685 871
e 685 891
e 685 921
e 686 950
e 686 891
e 686 906
e 686 747
e 686 900
e 692 985
e 692 850
e 693 735
e 695 926
e 695 917
e 696 959
e 696 892
e 696 810
e 697 764
e 697 807
e 698 741
e 698 853
e 698 878
e 702 875
e 702 855
e 703 856
e 703 783
e 705 776
e 706 952
e 706 828
e 706 972
e 707 821
e 708 839
e 708 952
e 709 948
e 709 875
e 709 770
e 710 956
e 713 810
e 713 829
e 713 845
e 714 856
e 714 982
e 714 1000
e 714 733
e 715 898
e 716 957
e 718 926
e 718 858
e 719 804
e 721 855
e 721 764
e 722 753
e 722 781
e 726 777
e 727 933
e 727 806
e 728 854
e 732 952
e 735 966
e 735 945
e 737 899
e 739 838
e 739 990
e 739 857
e 741 851
e 741 804
e 742 983
e 742 888
e 743 836
e 744 746
e 745 899
e 745 825
e 749 955
e 750 829
e 750 896
e 751 786
e 752 830
e 752 891
e 752 902
e 753 811
e 754 948
e 755 820
e 756 782
e 756 808
e 764 932
e 767 900
e 770 906
e 770 808
e 772 942
e 773 788
e 774 781
e 778 935
e 778 832
e 782 902
e 782 916
e 783 991
e 783 808
e 785 922
e 792 947
e 792 904
e 794 897
e 797 961
e 798 946
e 799 887
e 799 883
e 802 937
e 803 850
e 806 913
e 807 950
e 807 874
e 808 830
e 810 844
e 810 850
e 812 830
e 812 843
e 812 977
e 814 859
e 815 933
e 815 908
e 818 863
e 819 967
e 820 928
e 821 873
e 821 888
e 822 923
e 822 847
e 824 855
e 828 863
e 829 856
e 834 989
e 835 990
e 838 953
e 844 925
e 850 873
e 851 973
e 852 959
e 854 869
e 856 979
e 857 901
e 857 894
e 857 958
e 857 902
e 858 969
e 866 887
e 868 899
e 871 949
e 871 922
e 878 893
e 879 951
e 883 984
e 885 915
e 886 997
e 886 903
e 886 977
e 887 900
e 889 892
e 891 894
e 891 935
e 892 948
e 896 992
e 897 904
e 903 915
e 904 981
e 907 969
e 908 964
e 908 947
e 909 921
e 919 930
e 922 989
e 923 933
e 930 973
e 930 987
e 933 968
e 938 951
e 942 987
e 946 947
e 947 984
e 949 989
e 953 966
e 960 985
e 961 980
e 963 967
e 969 989
