txt_Ins/graph-1000-219.txt
n 1000
e 0 759
e 0 407
e 0 538
e 0 532
e 1 517
e 1 473
e 1 159
e 1 142
e 2 523
e 2 308
e 2 527
e 2 173
e 2 126
e 2 654
e 2 410
e 2 627
e 2 493
e 3 641
e 3 582
e 3 229
e 3 456
e 4 182
e 4 74
e 4 602
e 4 976
e 4 218
e 4 76
e 5 640
e 5 542
e 5 403
e 5 631
e 7 462
e 7 222
e 7 944
e 12 980
e 12 68
e 12 941
e 13 228
e 13 22
e 13 679
e 13 797
e 14 907
e 14 116
e 14 734
e 15 625
e 15 210
e 15 999
e 15 361
e 15 368
e 15 201
e 17 845
e 17 141
e 17 64
e 17 617
e 17 379
e 18 277
e 18 507
e 18 450
e 20 821
e 20 486
e 20 118
e 21 131
e 21 406
e 21 138
e 22 576
e 22 771
e 22 621
e 23 893
e 23 873
e 23 781
e 23 396
e 24 178
e 24 800
e 24 448
e 24 468
e 24 868
e 24 819
e 25 984
e 25 981
e 25 98
e 25 989
e 25 152
e 28 593
e 28 677
e 28 825
e 28 170
e 29 140
e 29 620
e 29 945
e 30 613
e 30 743
e 30 503
e 30 986
e 30 682
e 30 605
e 31 874
e 31 329
e 31 784
e 31 928
e 32 771
e 32 467
e 32 279
e 32 734
e 32 463
e 33 98
e 33 902
e 33 114
e 33 691
e 33 459
e 33 362
e 33 507
e 33 381
e 33 827
e 33 921
e 34 416
e 34 692
e 34 124
e 35 130
e 35 566
e 35 443
e 35 439
e 35 928
e 35 459
e 35 105
e 36 129
e 36 563
e 36 299
e 36 907
e 37 137
e 37 658
e 37 527
e 37 189
e 37 671
e 37 590
e 39 783
e 39 363
e 39 791
e 40 595
e 40 469
e 40 489
e 40 178
e 43 647
e 43 107
e 43 474
e 45 882
e 45 842
e 45 616
e 45 511
e 46 852
e 46 225
e 46 245
e 46 763
e 46 766
e 49 614
e 49 661
e 49 443
e 49 877
e 49 262
e 49 269
e 49 260
e 49 339
e 49 867
e 50 590
e 50 919
e 50 795
e 50 71
e 50 469
e 50 479
e 50 897
e 50 113
e 51 900
e 51 211
e 51 827
e 51 972
e 51 549
e 51 829
e 54 999
e 54 768
e 54 473
e 54 709
e 54 196
e 57 329
e 57 708
e 57 188
e 58 228
e 58 962
e 58 558
e 59 300
e 59 652
e 59 292
e 59 195
e 59 85
e 61 608
e 61 307
e 61 616
e 61 322
e 61 268
e 62 762
e 62 520
e 62 483
e 63 170
e 63 815
e 63 893
e 64 562
e 64 101
e 64 532
e 64 109
e 66 897
e 66 479
e 66 633
e 66 337
e 68 129
e 68 334
e 68 507
e 69 426
e 69 828
e 69 133
e 70 421
e 70 116
e 70 745
e 70 714
e 70 350
e 70 892
e 70 417
e 70 209
e 71 325
e 71 361
e 72 161
e 72 924
e 72 136
e 72 888
e 74 195
e 74 941
e 74 732
e 74 960
e 75 717
e 75 714
e 75 893
e 76 172
e 76 606
e 77 381
e 77 936
e 77 201
e 78 82
e 78 568
e 78 905
e 78 157
e 79 112
e 79 634
e 79 519
e 81 411
e 81 205
e 81 502
e 81 565
e 81 483
e 81 237
e 81 820
e 81 956
e 81 779
e 81 462
e 82 401
e 82 519
e 82 420
e 82 502
e 82 963
e 83 769
e 83 223
e 83 878
e 83 843
e 83 280
e 83 762
e 85 632
e 85 416
e 85 467
e 85 833
e 85 480
e 85 804
e 85 196
e 86 427
e 86 466
e 86 785
e 86 620
e 86 987
e 87 745
e 87 274
e 87 324
e 87 473
e 87 111
e 88 943
e 88 375
e 88 617
e 88 796
e 88 944
e 89 491
e 89 963
e 89 117
e 89 371
e 89 270
e 89 332
e 91 929
e 91 326
e 91 223
e 92 640
e 92 623
e 92 886
e 92 958
e 93 348
e 93 100
e 93 272
e 94 218
e 94 322
e 94 526
e 94 398
e 95 240
e 95 397
e 95 606
e 95 588
e 96 619
e 96 301
e 96 484
e 96 215
e 97 730
e 97 235
e 97 511
e 98 817
e 98 473
e 99 401
e 99 642
e 99 590
e 99 962
e 99 438
e 99 290
e 99 130
e 99 593
e 100 832
e 100 922
e 100 968
e 100 943
e 100 959
e 100 355
e 101 600
e 101 565
e 102 623
e 102 198
e 102 793
e 103 698
e 103 697
e 103 573
e 103 937
e 103 821
e 104 310
e 104 696
e 104 257
e 104 132
e 105 664
e 105 334
e 105 829
e 105 713
e 106 696
e 106 400
e 106 963
e 106 182
e 106 726
e 106 895
e 107 362
e 107 593
e 107 526
e 107 681
e 108 620
e 108 625
e 108 484
e 108 393
e 108 608
e 109 921
e 109 558
e 111 144
e 111 176
e 111 677
e 111 182
e 112 785
e 112 484
e 112 955
e 112 239
e 112 640
e 112 917
e 113 892
e 113 210
e 113 803
e 113 537
e 114 742
e 114 644
e 115 526
e 115 624
e 115 123
e 116 289
e 116 581
e 117 122
e 117 260
e 117 752
e 117 835
e 117 815
e 117 748
e 117 349
e 118 752
e 118 731
e 118 843
e 120 777
e 120 918
e 120 744
e 120 374
e 120 448
e 120 743
e 120 819
e 121 142
e 121 862
e 121 151
e 121 937
e 122 679
e 122 938
e 123 507
e 123 201
e 123 191
e 123 680
e 124 127
e 124 414
e 124 184
e 124 748
e 125 805
e 125 295
e 125 451
e 126 685
e 126 440
e 127 890
e 127 225
e 127 658
e 127 300
e 129 682
e 129 354
e 129 309
e 129 277
e 129 859
e 129 192
e 130 548
e 130 186
e 130 309
e 131 990
e 131 507
e 132 240
e 132 949
e 132 410
e 133 986
e 133 283
e 134 581
e 134 192
e 134 751
e 135 720
e 135 654
e 135 570
e 135 329
e 136 144
e 136 192
e 136 870
e 137 983
e 137 188
e 137 991
e 137 853
e 137 366
e 138 361
e 138 187
e 139 833
e 139 560
e 139 718
e 139 752
e 139 348
e 140 971
e 140 815
e 141 509
e 141 379
e 141 730
e 141 173
e 142 828
e 142 713
e 142 616
e 143 251
e 143 750
e 143 527
e 143 856
e 144 177
e 144 921
e 144 742
e 144 209
e 146 530
e 146 742
e 146 787
e 147 523
e 147 667
e 147 315
e 147 234
e 148 501
e 148 241
e 148 273
e 148 915
e 148 885
e 151 659
e 151 495
e 152 621
e 152 174
e 152 443
e 152 220
e 152 477
e 152 176
e 152 409
e 157 534
e 157 483
e 158 249
e 158 730
e 158 273
e 158 844
e 158 612
e 158 882
e 158 780
e 159 231
e 159 637
e 159 350
e 161 164
e 161 660
e 161 593
e 161 256
e 163 578
e 163 690
e 163 397
e 164 311
e 164 305
e 164 432
e 164 868
e 164 530
e 164 760
e 165 619
e 165 798
e 165 884
e 165 337
e 166 692
e 166 391
e 166 520
e 166 268
e 166 580
e 166 695
e 166 671
e 166 451
e 167 958
e 167 846
e 167 858
e 167 292
e 167 568
e 168 281
e 168 522
e 168 288
e 169 979
e 169 406
e 169 187
e 169 745
e 169 477
e 169 481
e 170 537
e 170 970
e 170 665
e 170 931
e 171 486
e 171 209
e 171 490
e 171 956
e 172 585
e 172 798
e 173 259
e 173 215
e 173 884
e 173 219
e 173 194
e 174 644
e 174 677
e 174 563
e 176 333
e 176 807
e 177 959
e 177 621
e 177 617
e 178 393
e 178 449
e 179 875
e 179 672
e 179 260
e 179 403
e 179 367
e 180 365
e 180 453
e 180 347
e 180 392
e 180 781
e 180 827
e 180 369
e 182 732
e 182 562
e 184 385
e 184 277
e 184 505
e 184 423
e 184 996
e 186 505
e 186 366
e 186 701
e 187 654
e 187 627
e 188 592
e 188 274
e 188 432
e 189 480
e 189 959
e 189 844
e 190 645
e 190 394
e 190 435
e 190 204
e 190 844
e 190 872
e 191 496
e 191 704
e 191 283
e 192 452
e 192 604
e 192 741
e 193 800
e 193 695
e 193 988
e 194 531
e 194 270
e 194 382
e 194 821
e 195 792
e 195 581
e 195 906
e 195 677
e 196 678
e 196 779
e 196 414
e 196 479
e 196 212
e 198 868
e 198 637
e 199 768
e 199 654
e 199 490
e 199 425
e 199 906
e 199 499
e 200 588
e 200 643
e 200 695
e 200 594
e 201 469
e 201 721
e 201 407
e 204 581
e 204 819
e 204 476
e 204 618
e 204 694
e 205 932
e 205 244
e 208 299
e 208 534
e 208 702
e 208 308
e 209 231
e 209 400
e 209 568
e 210 594
e 210 548
e 211 285
e 211 305
e 211 414
e 211 468
e 211 913
e 212 988
e 212 215
e 212 745
e 212 450
e 212 966
e 214 846
e 214 274
e 214 597
e 214 766
e 214 370
e 215 818
e 215 654
e 215 532
e 215 653
e 215 783
e 215 609
e 215 732
e 215 425
e 216 239
e 216 689
e 216 581
e 216 955
e 216 377
e 216 590
e 217 372
e 217 326
e 217 878
e 217 650
e 217 279
e 217 648
e 218 641
e 219 560
e 219 524
e 219 943
e 219 970
e 220 957
e 220 515
e 220 849
e 220 682
e 222 407
e 222 530
e 222 709
e 223 598
e 223 268
e 223 997
e 223 810
e 223 743
e 224 372
e 224 807
e 224 955
e 225 566
e 225 514
e 225 304
e 226 684
e 226 619
e 226 230
e 228 654
e 228 499
e 228 396
e 229 827
e 229 230
e 229 260
e 230 419
e 230 406
e 231 730
e 231 982
e 231 704
e 233 258
e 233 553
e 233 383
e 233 827
e 233 427
e 233 771
e 234 928
e 234 925
e 235 641
e 235 281
e 237 250
e 237 597
e 237 782
e 237 825
e 237 434
e 237 931
e 237 618
e 237 349
e 237 690
e 237 585
e 239 615
e 240 660
e 240 787
e 241 654
e 241 612
e 241 359
e 241 984
e 243 254
e 243 458
e 243 647
e 243 403
e 244 924
e 244 595
e 244 501
e 244 685
e 245 797
e 245 925
e 245 560
e 246 623
e 246 318
e 246 818
e 246 392
e 249 333
e 249 800
e 250 356
e 250 684
e 251 694
e 251 972
e 251 740
e 252 690
e 252 520
e 252 845
e 252 369
e 253 268
e 253 852
e 253 759
e 253 477
e 254 371
e 254 850
e 254 314
e 255 564
e 255 967
e 255 451
e 255 856
e 256 324
e 256 550
e 256 965
e 257 538
e 257 435
e 257 706
e 258 509
e 258 524
e 259 630
e 259 508
e 259 492
e 259 751
e 260 511
e 260 532
e 260 513
e 262 524
e 262 738
e 265 850
e 265 309
e 265 380
e 266 901
e 266 742
e 266 393
e 266 279
e 268 620
e 268 622
e 268 769
e 268 808
e 268 704
e 269 652
e 269 450
e 269 561
e 269 629
e 270 566
e 270 873
e 270 580
e 270 750
e 272 803
e 272 949
e 272 640
e 272 748
e 272 402
e 272 652
e 273 410
e 273 796
e 273 900
e 274 355
e 274 862
e 274 290
e 274 706
e 275 385
e 275 626
e 275 377
e 277 772
e 277 563
e 277 824
e 278 934
e 278 303
e 278 480
e 279 302
e 279 326
e 280 703
e 280 461
e 280 600
e 280 312
e 281 621
e 283 740
e 285 833
e 285 298
e 285 381
e 285 745
e 287 432
e 287 495
e 287 607
e 287 349
e 288 441
e 288 703
e 288 939
e 289 896
e 289 548
e 289 509
e 290 675
e 292 912
e 292 496
e 292 928
e 295 447
e 295 808
e 297 370
e 297 404
e 297 438
e 298 381
e 298 301
e 298 939
e 298 851
e 299 720
e 299 347
e 300 522
e 301 978
e 301 578
e 301 397
e 301 805
e 302 672
e 302 348
e 303 352
e 303 666
e 304 383
e 304 585
e 304 709
e 304 679
e 304 970
e 304 982
e 305 563
e 305 981
e 306 326
e 306 445
e 306 886
e 307 701
e 307 366
e 307 842
e 308 426
e 308 620
e 308 913
e 308 323
e 308 873
e 309 401
e 309 958
e 309 802
e 309 626
e 309 742
e 309 694
e 310 870
e 310 865
e 310 448
e 311 570
e 311 864
e 311 914
e 312 862
e 312 421
e 312 817
e 314 559
e 314 515
e 314 602
e 315 795
e 315 742
e 315 574
e 315 777
e 315 467
e 318 963
e 318 366
e 318 560
e 318 648
e 318 918
e 319 653
e 319 751
e 319 401
e 319 570
e 319 784
e 321 346
e 321 337
e 321 435
e 321 665
e 321 564
e 322 865
e 322 736
e 322 526
e 322 538
e 322 717
e 322 552
e 323 702
e 323 997
e 324 493
e 325 546
e 325 782
e 325 807
e 326 781
e 326 689
e 326 936
e 329 415
e 329 550
e 329 400
e 329 640
e 329 391
e 329 372
e 331 829
e 331 531
e 331 486
e 332 469
e 332 751
e 333 392
e 333 609
e 333 691
e 334 551
e 334 561
e 334 962
e 334 458
e 334 519
e 335 553
e 335 474
e 335 924
e 337 927
e 337 777
e 337 677
e 337 906
e 339 648
e 339 804
e 339 803
e 339 655
e 339 496
e 339 991
e 341 458
e 341 793
e 341 634
e 346 947
e 346 559
e 346 895
e 347 417
e 347 598
e 347 727
e 348 595
e 349 444
e 349 877
e 350 914
e 350 391
e 350 505
e 350 530
e 352 732
e 352 647
e 353 371
e 353 396
e 353 435
e 353 502
e 354 601
e 354 499
e 355 511
e 355 653
e 355 589
e 356 371
e 356 481
e 359 977
e 359 936
e 359 541
e 359 651
e 361 814
e 361 397
e 361 484
e 361 648
e 362 613
e 362 541
e 362 428
e 362 727
e 362 966
e 362 390
e 362 666
e 363 551
e 363 508
e 363 707
e 364 444
e 364 937
e 364 669
e 364 694
e 365 478
e 365 471
e 365 590
e 365 551
e 365 752
e 366 669
e 366 567
e 366 441
e 366 558
e 367 805
e 367 422
e 367 397
e 367 632
e 368 943
e 368 685
e 369 844
e 369 412
e 370 439
e 370 916
e 371 530
e 371 623
e 371 614
e 371 776
e 372 962
e 372 397
e 372 814
e 374 768
e 374 837
e 375 948
e 375 965
e 376 819
e 376 384
e 376 517
e 376 448
e 376 814
e 377 519
e 377 552
e 377 614
e 379 959
e 380 535
e 380 511
e 380 945
e 380 858
e 381 524
e 381 646
e 381 936
e 382 538
e 382 493
e 382 701
e 382 681
e 382 455
e 383 976
e 383 508
e 384 738
e 384 609
e 384 679
e 384 426
e 384 681
e 385 748
e 385 907
e 385 438
e 390 698
e 390 934
e 392 726
e 392 798
e 392 527
e 392 397
e 392 746
e 393 867
e 393 494
e 393 843
e 393 450
e 393 907
e 394 410
e 394 827
e 394 808
e 397 890
e 397 707
e 397 469
e 398 473
e 398 907
e 398 736
e 400 428
e 400 492
e 401 493
e 401 810
e 401 658
e 402 766
e 402 663
e 402 712
e 403 750
e 403 907
e 404 972
e 404 829
e 404 531
e 404 461
e 404 443
e 407 439
e 407 843
e 409 787
e 409 640
e 409 660
e 410 968
e 410 534
e 410 819
e 410 483
e 411 452
e 411 995
e 411 976
e 412 609
e 412 906
e 412 915
e 413 898
e 413 918
e 413 772
e 414 535
e 414 682
e 415 908
e 415 838
e 415 688
e 415 943
e 416 823
e 417 823
e 417 857
e 417 986
e 418 870
e 418 481
e 418 440
e 418 595
e 419 500
e 419 989
e 419 850
e 420 487
e 420 732
e 420 796
e 420 981
e 421 787
e 421 921
e 421 957
e 421 950
e 421 535
e 422 795
e 422 678
e 422 948
e 422 987
e 423 664
e 423 715
e 423 666
e 423 428
e 423 520
e 423 450
e 425 810
e 425 715
e 425 508
e 426 857
e 426 734
e 427 675
e 427 784
e 432 715
e 432 849
e 432 787
e 433 561
e 433 456
e 433 949
e 434 887
e 434 720
e 435 447
e 435 907
e 435 852
e 439 995
e 439 762
e 440 801
e 440 602
e 440 898
e 441 746
e 441 851
e 441 977
e 441 834
e 443 703
e 444 546
e 444 895
e 445 775
e 445 604
e 445 956
e 447 590
e 447 503
e 447 842
e 447 514
e 448 792
e 448 568
e 448 491
e 449 941
e 449 538
e 450 605
e 451 534
e 452 732
e 452 991
e 453 864
e 453 846
e 453 713
e 453 855
e 455 913
e 455 996
e 456 892
e 456 552
e 458 663
e 459 655
e 459 776
e 459 927
e 461 613
e 461 806
e 461 626
e 462 922
e 463 508
e 463 978
e 463 629
e 463 792
e 463 710
e 464 689
e 464 559
e 464 520
e 466 489
e 466 912
e 466 755
e 467 605
e 468 514
e 468 546
e 469 651
e 469 857
e 471 744
e 471 754
e 471 664
e 472 888
e 472 924
e 472 564
e 473 632
e 473 648
e 473 492
e 473 989
e 474 490
e 474 833
e 474 938
e 474 783
e 476 945
e 476 731
e 477 689
e 477 570
e 478 791
e 478 835
e 479 893
e 480 642
e 480 514
e 480 827
e 480 815
e 480 481
e 480 913
e 481 899
e 481 884
e 481 858
e 483 715
e 483 721
e 483 608
e 483 908
e 483 707
e 484 899
e 484 919
e 486 718
e 486 507
e 487 682
e 487 585
e 487 893
e 487 725
e 487 903
e 487 612
e 489 720
e 489 891
e 489 694
e 490 593
e 490 580
e 490 978
e 490 688
e 491 891
e 491 661
e 491 654
e 493 644
e 493 982
e 493 726
e 493 630
e 493 921
e 493 712
e 494 775
e 494 615
e 494 549
e 495 580
e 495 677
e 495 627
e 496 982
e 496 996
e 496 777
e 497 934
e 497 607
e 497 763
e 497 762
e 498 704
e 498 924
e 498 715
e 499 997
e 499 829
e 499 746
e 500 517
e 500 598
e 501 977
e 501 932
e 501 837
e 502 855
e 502 967
e 502 688
e 503 755
e 503 793
e 503 808
e 504 615
e 504 986
e 504 589
e 504 607
e 504 776
e 504 542
e 505 600
e 505 650
e 505 692
e 507 843
e 507 619
e 508 968
e 508 979
e 508 565
e 509 921
e 511 854
e 511 775
e 511 704
e 511 968
e 512 832
e 512 582
e 512 702
e 513 832
e 513 949
e 513 735
e 514 744
e 515 542
e 515 976
e 515 882
e 515 884
e 517 868
e 519 963
e 519 995
e 519 578
e 519 565
e 520 984
e 522 825
e 522 971
e 523 903
e 524 851
e 524 759
e 524 943
e 526 551
e 527 653
e 527 710
e 530 981
e 530 856
e 531 613
e 532 779
e 532 553
e 532 610
e 534 800
e 534 813
e 534 979
e 534 735
e 534 805
e 537 954
e 538 936
e 541 584
e 541 632
e 541 715
e 541 986
e 541 941
e 542 752
e 542 753
e 542 601
e 548 558
e 548 854
e 548 726
e 549 989
e 549 952
e 550 597
e 551 748
e 552 882
e 552 648
e 553 802
e 554 907
e 554 613
e 554 732
e 558 844
e 560 780
e 560 834
e 561 990
e 562 956
e 562 921
e 563 576
e 563 748
e 563 955
e 563 710
e 564 619
e 564 776
e 564 655
e 564 763
e 564 666
e 565 773
e 565 752
e 566 725
e 566 823
e 566 810
e 567 968
e 567 952
e 567 807
e 567 612
e 567 709
e 570 646
e 570 905
e 573 749
e 573 745
e 574 912
e 574 801
e 574 906
e 576 958
e 576 859
e 576 966
e 576 856
e 578 766
e 580 634
e 580 581
e 580 845
e 580 951
e 581 864
e 581 753
e 581 735
e 582 814
e 584 589
e 584 972
e 584 835
e 585 888
e 588 890
e 588 651
e 589 938
e 589 627
e 589 944
e 589 828
e 592 631
e 592 706
e 593 965
e 593 936
e 593 917
e 594 885
e 594 660
e 594 601
e 594 615
e 594 671
e 595 986
e 597 954
e 597 813
e 598 652
e 600 928
e 600 642
e 600 884
e 601 984
e 601 891
e 602 784
e 602 951
e 604 918
e 604 986
e 605 780
e 605 685
e 605 666
e 606 691
e 607 910
e 607 868
e 608 895
e 608 760
e 608 675
e 608 609
e 609 967
e 610 664
e 610 641
e 610 916
e 612 685
e 613 859
e 613 936
e 614 640
e 614 707
e 615 870
e 615 965
e 615 660
e 616 858
e 616 791
e 616 622
e 617 742
e 617 824
e 618 727
e 618 679
e 619 815
e 621 979
e 622 735
e 622 697
e 623 669
e 624 831
e 624 920
e 624 740
e 625 802
e 625 654
e 625 698
e 625 900
e 626 910
e 627 819
e 629 727
e 630 838
e 630 987
e 630 867
e 631 815
e 631 874
e 632 898
e 632 706
e 632 766
e 633 949
e 633 671
e 637 937
e 637 965
e 641 990
e 641 843
e 643 944
e 643 773
e 643 955
e 643 834
e 643 694
e 644 978
e 644 781
e 645 834
e 645 846
e 646 754
e 646 759
e 647 949
e 647 689
e 648 919
e 649 949
e 649 744
e 649 692
e 650 784
e 651 982
e 652 760
e 653 893
e 653 905
e 654 796
e 654 831
e 655 705
e 658 939
e 658 947
e 659 835
e 659 701
e 659 999
e 660 752
e 661 717
e 663 748
e 663 897
e 664 721
e 664 808
e 665 820
e 666 980
e 667 999
e 667 754
e 667 990
e 669 910
e 669 875
e 669 927
e 671 875
e 671 983
e 672 917
e 672 783
e 675 907
e 675 901
e 677 750
e 678 796
e 679 815
e 680 804
e 680 912
e 681 954
e 681 705
e 681 759
e 682 784
e 684 870
e 684 890
e 684 920
e 685 949
e 685 890
e 685 905
e 685 746
e 685 899
e 691 984
e 691 849
e 692 734
e 694 925
e 694 916
e 695 958
e 695 891
e 695 809
e 696 763
e 696 806
e 697 740
e 697 852
e 697 877
e 701 874
e 701 854
e 702 855
e 702 782
e 704 775
e 705 951
e 705 827
e 705 971
e 706 820
e 707 838
e 707 951
e 708 947
e 708 874
e 708 769
e 709 955
e 712 809
e 712 828
e 712 844
e 713 855
e 713 981
e 713 999
e 713 732
e 714 897
e 715 956
e 717 925
e 717 857
e 718 803
e 720 854
e 720 763
e 721 752
e 721 780
e 725 776
e 726 932
e 726 805
e 727 853
e 731 951
e 734 965
e 734 944
e 736 898
e 738 837
e 738 989
e 738 856
e 740 850
e 740 803
e 741 982
e 741 887
e 742 835
e 743 745
e 744 898
e 744 824
e 748 954
e 749 828
e 749 895
e 750 785
e 751 829
e 751 890
e 751 901
e 752 810
e 753 947
e 754 819
e 755 781
e 755 807
e 763 931
e 766 899
e 769 905
e 769 807
e 771 941
e 772 787
e 773 780
e 777 934
e 777 831
e 781 901
e 781 915
e 782 990
e 782 807
e 784 921
e 791 946
e 791 903
e 793 896
e 796 960
e 797 945
e 798 886
e 798 882
e 801 936
e 802 849
e 805 912
e 806 949
e 806 873
e 807 829
e 809 843
e 809 849
e 811 829
e 811 842
e 811 976
e 813 858
e 814 932
e 814 907
e 817 862
e 818 966
e 819 927
e 820 872
e 820 887
e 821 922
e 821 846
e 823 854
e 827 862
e 828 855
e 833 988
e 834 989
e 837 952
e 843 924
e 849 872
e 850 972
e 851 958
e 853 868
e 855 978
e 856 900
e 856 893
e 856 957
e 856 901
e 857 968
e 865 886
e 867 898
e 870 948
e 870 921
e 877 892
e 878 950
e 882 983
e 884 914
e 885 996
e 885 902
e 885 976
e 886 899
e 888 891
e 890 893
e 890 934
e 891 947
e 895 991
e 896 903
e 902 914
e 903 980
e 906 968
e 907 963
e 907 946
e 908 920
e 918 929
e 921 988
e 922 932
e 929 972
e 929 986
e 932 967
e 937 950
e 941 986
e 945 946
e 946 983
e 948 988
e 952 965
e 959 984
e 960 979
e 962 966
e 968 988
